DATASET = "thpack2";
INSTANCE = "099";

WIDTH = 233;
HEIGHT = 220;
LENGTH = 587;

NO_OF_SHAPES = 5;
size = [|
  51,46,44 |
  95,92,47 |
  116,39,23 |
  51,37,32 |
  117,44,38 |
|];

verticality = [|
  1,1,1 |
  0,1,1 |
  0,1,1 |
  1,1,1 |
  0,1,1 |
|];

box_count = [
  47,
  32,
  30,
  28,
  37,
];
